
  22   10
  10   10   10   10   10   10   10   10   10   10

   0   0   0   0   0   0   0   0   0   0   0   4 2 3 8 9 
   9   0   0   0   0   0   0   0   0   0  10   3 11 10 4 
   6   0   0   0   0  10   0   0   0   0   0   5 16 14 11 10 6 
   9   0   0  10   0   0   0   0   0   0   0   1 5 
   5   0   0   0   0   0   0   0   0   0  10   3 16 14 6 
   5   0   0   0   0   0  10   0   0   0   0   1 7 
   8   0   0   0  10   0   0   0   0   0   0   2 13 12 
   3   0   0   0   0  10   0   0   0   0   0   2 14 12 
  10   0   0  10   0   0   0   0   0   0   0   1 10 
   4   0   0   0   0   0  10   0   0   0   0   1 12 
   4   0   0   0   0   0   0   0  10   0   0   1 13 
   9   0   0   0   0   0  10   0   0   0   0   2 20 15 
   1   0   0  10   0   0   0   0   0   0   0   2 20 15 
   8   0   0   0   0  10   0   0   0   0   0   2 20 15 
   4   0   0   0   0   0   0  10   0   0   0   2 21 17 
  10  10   0   0   0   0   0   0   0   0   0   2 20 18 
   4   0   0   0   0   0  10   0   0   0   0   1 18 
   5   0   0   0   0   0   0   0  10   0   0   1 19 
   2   0   0   0   0   0   0   0   0   0  10   1 22
   8   0   0   0  10   0   0   0   0   0   0   1 22
   1   0  10   0   0   0   0   0   0   0   0   1 22
   0   0   0   0   0   0   0   0   0   0   0   0 
